<number of tasks>
250

<cycle time>
1000

<order strength>
0.896


<task times>
1 191
2 82
3 125
4 71
5 110
6 121
7 207
8 113
9 251
10 127
11 36
12 183
13 119
14 115
15 147
16 235
17 84
18 91
19 273
20 62
21 159
22 222
23 111
24 188
25 138
26 65
27 93
28 91
29 169
30 199
31 106
32 129
33 207
34 128
35 165
36 100
37 116
38 222
39 70
40 62
41 168
42 98
43 139
44 202
45 157
46 236
47 116
48 21
49 83
50 33
51 174
52 125
53 253
54 91
55 99
56 52
57 232
58 88
59 57
60 188
61 66
62 129
63 87
64 231
65 100
66 325
67 248
68 183
69 51
70 61
71 167
72 133
73 217
74 56
75 58
76 89
77 47
78 265
79 152
80 144
81 61
82 75
83 156
84 168
85 181
86 44
87 80
88 233
89 113
90 60
91 249
92 135
93 99
94 192
95 207
96 132
97 107
98 229
99 62
100 81
101 246
102 46
103 89
104 128
105 58
106 151
107 51
108 57
109 113
110 182
111 144
112 96
113 287
114 88
115 132
116 65
117 119
118 52
119 123
120 158
121 149
122 169
123 206
124 160
125 64
126 85
127 138
128 54
129 44
130 307
131 148
132 35
133 175
134 279
135 92
136 288
137 112
138 82
139 160
140 282
141 152
142 171
143 23
144 206
145 293
146 139
147 181
148 92
149 166
150 82
151 166
152 153
153 229
154 157
155 41
156 70
157 252
158 219
159 75
160 61
161 155
162 149
163 112
164 229
165 21
166 77
167 111
168 298
169 163
170 98
171 163
172 60
173 129
174 189
175 33
176 244
177 276
178 25
179 114
180 115
181 158
182 26
183 197
184 198
185 179
186 90
187 84
188 136
189 91
190 323
191 339
192 50
193 145
194 109
195 339
196 177
197 43
198 152
199 40
200 91
201 194
202 61
203 41
204 106
205 124
206 76
207 168
208 84
209 114
210 90
211 258
212 152
213 137
214 77
215 126
216 36
217 226
218 32
219 55
220 111
221 180
222 143
223 264
224 35
225 20
226 78
227 120
228 213
229 178
230 171
231 38
232 147
233 135
234 49
235 72
236 109
237 32
238 100
239 267
240 62
241 121
242 94
243 244
244 296
245 88
246 195
247 294
248 315
249 156
250 113

<precedence relations>
1,7
2,4
2,5
2,6
2,7
3,4
3,5
4,8
4,9
4,14
5,8
5,9
5,10
5,11
5,12
5,13
5,14
6,8
6,9
6,10
6,11
6,12
6,13
6,14
7,8
7,9
7,10
7,11
7,12
7,13
7,14
8,15
8,16
8,17
8,18
8,19
9,15
9,16
9,17
9,18
9,19
10,15
10,16
10,17
10,18
10,19
11,15
11,16
11,17
11,18
11,19
12,15
12,16
12,17
12,18
12,19
13,15
13,16
13,17
13,18
13,19
14,15
14,16
14,17
14,18
14,19
15,20
15,21
15,22
15,23
15,24
16,20
16,21
16,22
16,23
16,24
17,20
17,21
17,22
17,23
17,24
18,20
18,21
18,22
18,23
18,24
19,20
19,21
19,22
19,23
19,24
20,25
20,26
21,25
21,26
22,25
22,26
23,25
23,26
24,25
24,26
25,27
25,28
25,29
25,30
26,27
26,28
26,29
26,30
27,31
27,32
28,31
28,32
29,31
29,32
30,31
30,32
31,33
31,34
31,35
31,36
32,33
32,34
32,35
32,36
33,37
33,38
33,39
33,40
33,41
33,42
34,37
34,38
34,39
34,40
34,41
34,42
35,37
35,38
35,39
35,40
35,41
35,42
36,37
36,38
37,43
37,44
38,43
38,44
38,45
38,48
39,43
39,45
39,47
39,48
40,43
40,44
40,45
40,46
41,43
41,44
41,45
41,46
42,46
43,56
43,59
43,60
44,49
44,50
44,51
44,52
44,53
44,54
44,55
45,49
45,50
45,51
46,49
46,53
46,55
47,49
47,52
48,49
48,50
48,51
49,56
49,57
49,58
49,59
49,60
50,56
51,56
51,57
51,58
51,59
51,60
52,58
52,59
53,56
53,57
53,58
53,60
54,73
54,74
55,56
55,57
55,58
55,59
55,60
56,61
56,62
56,63
56,64
56,65
57,104
57,134
57,137
58,61
58,80
58,84
59,61
59,67
59,74
60,61
60,63
60,64
60,65
61,91
61,92
62,66
62,67
62,68
63,66
63,67
63,68
63,69
63,70
64,69
65,66
65,67
65,68
65,69
65,70
66,71
66,72
67,71
67,72
67,73
68,84
69,71
69,72
69,73
69,74
70,71
70,72
70,73
70,74
71,75
71,76
71,77
71,78
72,75
72,77
72,78
73,75
73,76
73,77
73,78
74,75
74,76
74,77
75,79
76,106
76,121
76,123
76,124
77,79
78,79
79,80
79,81
79,82
79,83
79,84
80,85
80,86
80,87
81,85
81,86
81,87
82,85
82,86
82,87
83,85
83,86
83,87
84,85
84,86
84,87
85,88
85,89
85,90
85,91
85,92
86,88
86,89
86,90
86,91
86,92
87,88
87,92
88,93
88,94
89,93
89,94
90,93
90,94
91,93
91,94
92,93
92,94
93,95
93,96
93,98
93,99
94,95
94,96
94,97
94,98
94,99
95,100
96,113
96,121
97,155
97,159
98,109
99,110
99,111
99,112
100,101
100,102
100,103
100,104
100,105
101,106
101,107
101,110
101,111
101,112
102,106
102,109
103,106
103,107
103,108
103,109
103,110
103,111
103,112
104,106
104,107
104,108
105,106
105,107
105,108
105,109
105,110
105,112
106,141
106,144
106,145
107,179
107,180
107,190
108,199
108,218
109,113
110,116
111,113
111,114
111,115
112,113
113,116
113,117
113,118
114,121
114,124
115,116
115,119
115,120
116,122
116,140
117,122
117,123
117,124
118,122
118,134
119,124
119,138
120,122
121,122
121,142
122,126
123,125
123,126
123,127
123,128
124,128
124,139
125,130
126,129
126,132
127,129
127,131
128,129
128,130
129,176
130,134
130,142
130,154
131,133
132,135
133,136
133,137
133,138
133,140
133,142
134,167
135,139
135,141
136,144
136,149
137,143
137,144
137,194
138,143
138,144
138,148
139,143
139,144
139,145
140,145
140,147
141,146
141,147
141,148
141,149
142,187
143,164
144,150
144,170
144,187
144,193
145,152
146,150
146,154
146,158
147,150
147,151
147,152
147,153
147,154
148,150
148,151
148,153
149,150
149,151
149,152
149,153
150,165
150,180
150,195
151,155
151,156
151,157
152,155
152,156
153,191
153,194
153,207
154,157
155,158
155,160
155,170
156,158
156,159
156,160
157,159
157,160
157,161
157,162
157,165
158,163
158,165
160,164
160,179
160,187
160,188
161,163
161,167
162,163
162,164
162,166
163,168
163,169
164,167
165,167
165,188
166,169
166,170
166,173
167,171
167,172
168,171
168,172
168,173
169,171
169,174
170,175
171,221
171,225
172,177
172,197
173,180
173,194
174,176
174,177
174,179
175,178
176,187
176,190
176,191
176,198
176,199
177,183
177,186
178,184
179,181
179,182
180,185
180,188
180,209
181,193
181,209
182,191
182,192
183,189
183,209
184,189
184,218
185,200
185,212
186,189
186,190
186,200
186,203
187,233
187,238
189,198
190,196
191,195
191,209
192,193
192,194
192,196
192,197
193,198
193,208
194,198
194,199
195,200
195,203
196,201
196,202
197,198
197,199
197,218
198,204
198,205
199,204
199,205
200,204
201,204
202,205
202,207
202,209
203,206
203,208
204,210
204,220
205,210
205,220
206,237
207,243
208,211
208,213
209,239
210,213
210,216
210,217
211,212
211,214
211,215
211,223
212,219
212,220
212,222
213,223
213,232
214,221
215,218
216,219
216,221
216,247
217,222
218,224
218,225
218,226
219,224
219,225
220,228
222,226
223,236
224,232
224,249
225,233
226,227
226,228
227,230
227,231
227,232
227,233
227,234
227,235
228,229
229,237
230,238
232,236
232,239
235,240
235,241
236,244
237,240
237,241
237,243
238,242
239,250
242,245
242,246
242,247
244,248
246,249
247,248
247,250

<end>
